778.40
0 78 13 79 25 49 45 96 23 86 51 98 20 62 3 88 65 34 74 7 56 16 37 69 89 67 80 15 66 39 58 4 31 29 18 30 93 14 77 99 1 92 9 21 10 73 87 26 63 59 55 42 38 97 76 12 68 24 64 36 40 22 84 57 83 28 71 6 48 33 27 61 81 91 19 35 2 17 72 75 85 90 53 5 47 43 70 41 50 52 95 60 8 94 32 11 44 46 82 54
